# Node Net
260   1
 11   1
281   1
280   2
120   2
 20   2
140   3
  7   3
388   3
383   4
181   4
221   4
360   5
101   5
 14   5
395   6
395   6
320   6
  2   7
200   7
387   7
391   8
381   8
141   8
340   9
  5   9
340   9
384  10
 41  10
341  11
321  11
